# Solution for model germination_srl_ilp
# Objective value = 1.9685702341363932e+01
Z_513_0_0 0
Z_513_0_1 0
Z_513_0_2 0
Z_513_0_3 0
Z_513_0_4 1
Z_209_0_0 0
Z_209_0_1 1
Z_209_0_2 0
Z_209_0_3 0
Z_209_0_4 0
Z_729_2_0 0
Z_729_2_1 0
Z_729_2_2 0
Z_729_2_3 0
Z_729_2_4 1
Z_729_4_0 0
Z_729_4_1 0
Z_729_4_2 0
Z_729_4_3 0
Z_729_4_4 1
Z_729_3_0 0
Z_729_3_1 0
Z_729_3_2 0
Z_729_3_3 0
Z_729_3_4 1
Z_729_1_0 0
Z_729_1_1 0
Z_729_1_2 0
Z_729_1_3 0
Z_729_1_4 1
Z_729_5_0 0
Z_729_5_1 0
Z_729_5_2 0
Z_729_5_3 0
Z_729_5_4 1
Z_148_0_0 0
Z_148_0_1 1
Z_148_0_2 0
Z_148_0_3 0
Z_148_0_4 0
Z_637_0_0 0
Z_637_0_1 1
Z_637_0_2 0
Z_637_0_3 0
Z_637_0_4 0
Z_593_4_0 0
Z_593_4_1 0
Z_593_4_2 0
Z_593_4_3 0
Z_593_4_4 1
Z_593_5_0 0
Z_593_5_1 0
Z_593_5_2 0
Z_593_5_3 0
Z_593_5_4 1
Z_593_1_0 0
Z_593_1_1 0
Z_593_1_2 0
Z_593_1_3 0
Z_593_1_4 1
Z_593_2_0 1
Z_593_2_1 0
Z_593_2_2 0
Z_593_2_3 0
Z_593_2_4 0
Z_593_0_0 0
Z_593_0_1 0
Z_593_0_2 1
Z_593_0_3 0
Z_593_0_4 0
Z_585_0_0 0
Z_585_0_1 0
Z_585_0_2 1
Z_585_0_3 0
Z_585_0_4 0
Z_226_0_0 0
Z_226_0_1 0
Z_226_0_2 1
Z_226_0_3 0
Z_226_0_4 0
Z_33_0_0 0
Z_33_0_1 0
Z_33_0_2 0
Z_33_0_3 0
Z_33_0_4 1
Z_467_4_0 0
Z_467_4_1 0
Z_467_4_2 0
Z_467_4_3 0
Z_467_4_4 1
Z_467_8_0 0
Z_467_8_1 0
Z_467_8_2 0
Z_467_8_3 0
Z_467_8_4 1
Z_467_2_0 0
Z_467_2_1 0
Z_467_2_2 0
Z_467_2_3 0
Z_467_2_4 1
Z_467_3_0 0
Z_467_3_1 0
Z_467_3_2 0
Z_467_3_3 0
Z_467_3_4 1
Z_467_0_0 0
Z_467_0_1 1
Z_467_0_2 0
Z_467_0_3 0
Z_467_0_4 0
Z_467_5_0 0
Z_467_5_1 0
Z_467_5_2 0
Z_467_5_3 0
Z_467_5_4 1
Z_467_1_0 0
Z_467_1_1 0
Z_467_1_2 0
Z_467_1_3 0
Z_467_1_4 1
Z_467_9_0 0
Z_467_9_1 0
Z_467_9_2 0
Z_467_9_3 0
Z_467_9_4 1
Z_467_7_0 0
Z_467_7_1 0
Z_467_7_2 0
Z_467_7_3 0
Z_467_7_4 1
Z_467_6_0 0
Z_467_6_1 0
Z_467_6_2 0
Z_467_6_3 0
Z_467_6_4 1
Z_2_0_0 0
Z_2_0_1 1
Z_2_0_2 0
Z_2_0_3 0
Z_2_0_4 0
Z_620_0_0 0
Z_620_0_1 0
Z_620_0_2 0
Z_620_0_3 0
Z_620_0_4 1
